50
1000
210
202
202
198
195
194
190
190
189
186
181
179
179
178
173
169
168
166
165
165
158
148
146
143
140
137
137
135
133
129
126
121
119
117
115
114
113
113
111
109
108
106
104
103
93
91
81
81
74
74
